c generated by sgen1
c Command: ./sgen1 -unsat -n 151 -s 100 
p cnf 153 316
-2 -3 -4 0
-1 -3 -4 0
-1 -2 -4 0
-1 -2 -3 0
-6 -7 -8 0
-5 -7 -8 0
-5 -6 -8 0
-5 -6 -7 0
-10 -11 -12 0
-9 -11 -12 0
-9 -10 -12 0
-9 -10 -11 0
-14 -15 -16 0
-13 -15 -16 0
-13 -14 -16 0
-13 -14 -15 0
-18 -19 -20 0
-17 -19 -20 0
-17 -18 -20 0
-17 -18 -19 0
-22 -23 -24 0
-21 -23 -24 0
-21 -22 -24 0
-21 -22 -23 0
-26 -27 -28 0
-25 -27 -28 0
-25 -26 -28 0
-25 -26 -27 0
-30 -31 -32 0
-29 -31 -32 0
-29 -30 -32 0
-29 -30 -31 0
-34 -35 -36 0
-33 -35 -36 0
-33 -34 -36 0
-33 -34 -35 0
-38 -39 -40 0
-37 -39 -40 0
-37 -38 -40 0
-37 -38 -39 0
-42 -43 -44 0
-41 -43 -44 0
-41 -42 -44 0
-41 -42 -43 0
-46 -47 -48 0
-45 -47 -48 0
-45 -46 -48 0
-45 -46 -47 0
-50 -51 -52 0
-49 -51 -52 0
-49 -50 -52 0
-49 -50 -51 0
-54 -55 -56 0
-53 -55 -56 0
-53 -54 -56 0
-53 -54 -55 0
-58 -59 -60 0
-57 -59 -60 0
-57 -58 -60 0
-57 -58 -59 0
-62 -63 -64 0
-61 -63 -64 0
-61 -62 -64 0
-61 -62 -63 0
-66 -67 -68 0
-65 -67 -68 0
-65 -66 -68 0
-65 -66 -67 0
-70 -71 -72 0
-69 -71 -72 0
-69 -70 -72 0
-69 -70 -71 0
-74 -75 -76 0
-73 -75 -76 0
-73 -74 -76 0
-73 -74 -75 0
-78 -79 -80 0
-77 -79 -80 0
-77 -78 -80 0
-77 -78 -79 0
-82 -83 -84 0
-81 -83 -84 0
-81 -82 -84 0
-81 -82 -83 0
-86 -87 -88 0
-85 -87 -88 0
-85 -86 -88 0
-85 -86 -87 0
-90 -91 -92 0
-89 -91 -92 0
-89 -90 -92 0
-89 -90 -91 0
-94 -95 -96 0
-93 -95 -96 0
-93 -94 -96 0
-93 -94 -95 0
-98 -99 -100 0
-97 -99 -100 0
-97 -98 -100 0
-97 -98 -99 0
-102 -103 -104 0
-101 -103 -104 0
-101 -102 -104 0
-101 -102 -103 0
-106 -107 -108 0
-105 -107 -108 0
-105 -106 -108 0
-105 -106 -107 0
-110 -111 -112 0
-109 -111 -112 0
-109 -110 -112 0
-109 -110 -111 0
-114 -115 -116 0
-113 -115 -116 0
-113 -114 -116 0
-113 -114 -115 0
-118 -119 -120 0
-117 -119 -120 0
-117 -118 -120 0
-117 -118 -119 0
-122 -123 -124 0
-121 -123 -124 0
-121 -122 -124 0
-121 -122 -123 0
-126 -127 -128 0
-125 -127 -128 0
-125 -126 -128 0
-125 -126 -127 0
-130 -131 -132 0
-129 -131 -132 0
-129 -130 -132 0
-129 -130 -131 0
-134 -135 -136 0
-133 -135 -136 0
-133 -134 -136 0
-133 -134 -135 0
-138 -139 -140 0
-137 -139 -140 0
-137 -138 -140 0
-137 -138 -139 0
-142 -143 -144 0
-141 -143 -144 0
-141 -142 -144 0
-141 -142 -143 0
-146 -147 -148 0
-145 -147 -148 0
-145 -146 -148 0
-145 -146 -147 0
-149 -150 -151  0
-149 -150 -152  0
-149 -150 -153  0
-149 -151 -152  0
-149 -151 -153  0
-149 -152 -153  0
-150 -151 -152  0
-150 -151 -153  0
-150 -152 -153  0
-151 -152 -153  0
18 67 123 0
135 67 123 0
135 18 123 0
135 18 67 0
86 70 53 0
20 70 53 0
20 86 53 0
20 86 70 0
118 92 77 0
68 92 77 0
68 118 77 0
68 118 92 0
111 58 27 0
49 58 27 0
49 111 27 0
49 111 58 0
28 102 42 0
96 102 42 0
96 28 42 0
96 28 102 0
44 10 78 0
19 10 78 0
19 44 78 0
19 44 10 0
87 43 5 0
3 43 5 0
3 87 5 0
3 87 43 0
109 4 40 0
62 4 40 0
62 109 40 0
62 109 4 0
149 35 107 0
132 35 107 0
132 149 107 0
132 149 35 0
99 104 119 0
106 104 119 0
106 99 119 0
106 99 104 0
7 100 65 0
94 100 65 0
94 7 65 0
94 7 100 0
38 93 114 0
138 93 114 0
138 38 114 0
138 38 93 0
136 24 48 0
51 24 48 0
51 136 48 0
51 136 24 0
137 41 22 0
90 41 22 0
90 137 22 0
90 137 41 0
145 144 13 0
151 144 13 0
151 145 13 0
151 145 144 0
124 128 143 0
2 128 143 0
2 124 143 0
2 124 128 0
127 134 59 0
146 134 59 0
146 127 59 0
146 127 134 0
50 91 122 0
150 91 122 0
150 50 122 0
150 50 91 0
36 15 110 0
133 15 110 0
133 36 110 0
133 36 15 0
126 23 103 0
72 23 103 0
72 126 103 0
72 126 23 0
34 83 89 0
1 83 89 0
1 34 89 0
1 34 83 0
60 98 153 0
63 98 153 0
63 60 153 0
63 60 98 0
74 117 6 0
37 117 6 0
37 74 6 0
37 74 117 0
121 139 73 0
56 139 73 0
56 121 73 0
56 121 139 0
140 47 82 0
61 47 82 0
61 140 82 0
61 140 47 0
9 55 142 0
95 55 142 0
95 9 142 0
95 9 55 0
115 8 71 0
79 8 71 0
79 115 71 0
79 115 8 0
105 64 29 0
11 64 29 0
11 105 29 0
11 105 64 0
108 16 84 0
80 16 84 0
80 108 84 0
80 108 16 0
129 66 39 0
148 66 39 0
148 129 39 0
148 129 66 0
147 32 120 0
21 32 120 0
21 147 120 0
21 147 32 0
141 101 46 0
31 101 46 0
31 141 46 0
31 141 101 0
33 17 76 0
52 17 76 0
52 33 76 0
52 33 17 0
88 45 152 0
12 45 152 0
12 88 152 0
12 88 45 0
30 69 14 0
26 69 14 0
26 30 14 0
26 30 69 0
57 131 116 0
85 131 116 0
85 57 116 0
85 57 131 0
112 75 97 0
130 75 97 0
130 112 97 0
130 112 75 0
81 54 113  0
81 54 125  0
81 54 25  0
81 113 125  0
81 113 25  0
81 125 25  0
54 113 125  0
54 113 25  0
54 125 25  0
113 125 25  0
